\ LP format - for model browsing. Use MPS format to capture full model detail.
Minimize
  3.209225080713865 x[0,1,1] + 3.209225080713865 x[0,1,2]
   + 3.209225080713865 x[0,1,3] + 12.65698929149337 x[0,2,1]
   + 12.65698929149337 x[0,2,2] + 12.65698929149337 x[0,2,3]
   + 6.428629089710375 x[0,3,1] + 6.428629089710375 x[0,3,2]
   + 6.428629089710375 x[0,3,3] + 18.25297697251097 x[0,4,1]
   + 18.25297697251097 x[0,4,2] + 18.25297697251097 x[0,4,3]
   + 15.03050653245813 x[0,5,1] + 15.03050653245813 x[0,5,2]
   + 15.03050653245813 x[0,5,3] + 11.77940529138823 x[1,2,1]
   + 11.77940529138823 x[1,2,2] + 11.77940529138823 x[1,2,3]
   + 5.562447359351713 x[1,3,1] + 5.562447359351713 x[1,3,2]
   + 5.562447359351713 x[1,3,3] + 16.08379167424117 x[1,4,1]
   + 16.08379167424117 x[1,4,2] + 16.08379167424117 x[1,4,3]
   + 13.50428083025146 x[1,5,1] + 13.50428083025146 x[1,5,2]
   + 13.50428083025146 x[1,5,3] + 3.209225080713865 x[1,6,1]
   + 3.209225080713865 x[1,6,2] + 3.209225080713865 x[1,6,3]
   + 11.77940529138823 x[2,1,1] + 11.77940529138823 x[2,1,2]
   + 11.77940529138823 x[2,1,3] + 6.327362962003472 x[2,3,1]
   + 6.327362962003472 x[2,3,2] + 6.327362962003472 x[2,3,3]
   + 8.317375058923071 x[2,4,1] + 8.317375058923071 x[2,4,2]
   + 8.317375058923071 x[2,4,3] + 3.540413457714997 x[2,5,1]
   + 3.540413457714997 x[2,5,2] + 3.540413457714997 x[2,5,3]
   + 12.65698929149337 x[2,6,1] + 12.65698929149337 x[2,6,2]
   + 12.65698929149337 x[2,6,3] + 5.562447359351713 x[3,1,1]
   + 5.562447359351713 x[3,1,2] + 5.562447359351713 x[3,1,3]
   + 6.327362962003472 x[3,2,1] + 6.327362962003472 x[3,2,2]
   + 6.327362962003472 x[3,2,3] + 12.21533172422947 x[3,4,1]
   + 12.21533172422947 x[3,4,2] + 12.21533172422947 x[3,4,3]
   + 8.627095666842605 x[3,5,1] + 8.627095666842605 x[3,5,2]
   + 8.627095666842605 x[3,5,3] + 6.428629089710375 x[3,6,1]
   + 6.428629089710375 x[3,6,2] + 6.428629089710375 x[3,6,3]
   + 16.08379167424117 x[4,1,1] + 16.08379167424117 x[4,1,2]
   + 16.08379167424117 x[4,1,3] + 8.317375058923071 x[4,2,1]
   + 8.317375058923071 x[4,2,2] + 8.317375058923071 x[4,2,3]
   + 12.21533172422947 x[4,3,1] + 12.21533172422947 x[4,3,2]
   + 12.21533172422947 x[4,3,3] + 4.820929129591633 x[4,5,1]
   + 4.820929129591633 x[4,5,2] + 4.820929129591633 x[4,5,3]
   + 18.25297697251097 x[4,6,1] + 18.25297697251097 x[4,6,2]
   + 18.25297697251097 x[4,6,3] + 13.50428083025146 x[5,1,1]
   + 13.50428083025146 x[5,1,2] + 13.50428083025146 x[5,1,3]
   + 3.540413457714997 x[5,2,1] + 3.540413457714997 x[5,2,2]
   + 3.540413457714997 x[5,2,3] + 8.627095666842605 x[5,3,1]
   + 8.627095666842605 x[5,3,2] + 8.627095666842605 x[5,3,3]
   + 4.820929129591633 x[5,4,1] + 4.820929129591633 x[5,4,2]
   + 4.820929129591633 x[5,4,3] + 15.03050653245813 x[5,6,1]
   + 15.03050653245813 x[5,6,2] + 15.03050653245813 x[5,6,3]
Subject To
 Start_1: x[0,1,1] + x[0,2,1] + x[0,3,1] + x[0,4,1] + x[0,5,1] + x[0,6,1]
   = 1
 Start_2: x[0,1,2] + x[0,2,2] + x[0,3,2] + x[0,4,2] + x[0,5,2] + x[0,6,2]
   = 1
 Start_3: x[0,1,3] + x[0,2,3] + x[0,3,3] + x[0,4,3] + x[0,5,3] + x[0,6,3]
   = 1
 Finish_1: x[0,6,1] + x[1,6,1] + x[2,6,1] + x[3,6,1] + x[4,6,1] + x[5,6,1]
   = 1
 Finish_2: x[0,6,2] + x[1,6,2] + x[2,6,2] + x[3,6,2] + x[4,6,2] + x[5,6,2]
   = 1
 Finish_3: x[0,6,3] + x[1,6,3] + x[2,6,3] + x[3,6,3] + x[4,6,3] + x[5,6,3]
   = 1
 Visit_1: x[0,1,1] + x[0,1,2] + x[0,1,3] + x[2,1,1] + x[2,1,2] + x[2,1,3]
   + x[3,1,1] + x[3,1,2] + x[3,1,3] + x[4,1,1] + x[4,1,2] + x[4,1,3]
   + x[5,1,1] + x[5,1,2] + x[5,1,3] = 1
 Visit_2: x[0,2,1] + x[0,2,2] + x[0,2,3] + x[1,2,1] + x[1,2,2] + x[1,2,3]
   + x[3,2,1] + x[3,2,2] + x[3,2,3] + x[4,2,1] + x[4,2,2] + x[4,2,3]
   + x[5,2,1] + x[5,2,2] + x[5,2,3] = 1
 Visit_3: x[0,3,1] + x[0,3,2] + x[0,3,3] + x[1,3,1] + x[1,3,2] + x[1,3,3]
   + x[2,3,1] + x[2,3,2] + x[2,3,3] + x[4,3,1] + x[4,3,2] + x[4,3,3]
   + x[5,3,1] + x[5,3,2] + x[5,3,3] = 1
 Visit_4: x[0,4,1] + x[0,4,2] + x[0,4,3] + x[1,4,1] + x[1,4,2] + x[1,4,3]
   + x[2,4,1] + x[2,4,2] + x[2,4,3] + x[3,4,1] + x[3,4,2] + x[3,4,3]
   + x[5,4,1] + x[5,4,2] + x[5,4,3] = 1
 Visit_5: x[0,5,1] + x[0,5,2] + x[0,5,3] + x[1,5,1] + x[1,5,2] + x[1,5,3]
   + x[2,5,1] + x[2,5,2] + x[2,5,3] + x[3,5,1] + x[3,5,2] + x[3,5,3]
   + x[4,5,1] + x[4,5,2] + x[4,5,3] = 1
 Leave_1_1: x[0,1,1] - x[1,2,1] - x[1,3,1] - x[1,4,1] - x[1,5,1] - x[1,6,1]
   + x[2,1,1] + x[3,1,1] + x[4,1,1] + x[5,1,1] = 0
 Leave_1_2: x[0,1,2] - x[1,2,2] - x[1,3,2] - x[1,4,2] - x[1,5,2] - x[1,6,2]
   + x[2,1,2] + x[3,1,2] + x[4,1,2] + x[5,1,2] = 0
 Leave_1_3: x[0,1,3] - x[1,2,3] - x[1,3,3] - x[1,4,3] - x[1,5,3] - x[1,6,3]
   + x[2,1,3] + x[3,1,3] + x[4,1,3] + x[5,1,3] = 0
 Leave_2_1: x[0,2,1] + x[1,2,1] - x[2,1,1] - x[2,3,1] - x[2,4,1] - x[2,5,1]
   - x[2,6,1] + x[3,2,1] + x[4,2,1] + x[5,2,1] = 0
 Leave_2_2: x[0,2,2] + x[1,2,2] - x[2,1,2] - x[2,3,2] - x[2,4,2] - x[2,5,2]
   - x[2,6,2] + x[3,2,2] + x[4,2,2] + x[5,2,2] = 0
 Leave_2_3: x[0,2,3] + x[1,2,3] - x[2,1,3] - x[2,3,3] - x[2,4,3] - x[2,5,3]
   - x[2,6,3] + x[3,2,3] + x[4,2,3] + x[5,2,3] = 0
 Leave_3_1: x[0,3,1] + x[1,3,1] + x[2,3,1] - x[3,1,1] - x[3,2,1] - x[3,4,1]
   - x[3,5,1] - x[3,6,1] + x[4,3,1] + x[5,3,1] = 0
 Leave_3_2: x[0,3,2] + x[1,3,2] + x[2,3,2] - x[3,1,2] - x[3,2,2] - x[3,4,2]
   - x[3,5,2] - x[3,6,2] + x[4,3,2] + x[5,3,2] = 0
 Leave_3_3: x[0,3,3] + x[1,3,3] + x[2,3,3] - x[3,1,3] - x[3,2,3] - x[3,4,3]
   - x[3,5,3] - x[3,6,3] + x[4,3,3] + x[5,3,3] = 0
 Leave_4_1: x[0,4,1] + x[1,4,1] + x[2,4,1] + x[3,4,1] - x[4,1,1] - x[4,2,1]
   - x[4,3,1] - x[4,5,1] - x[4,6,1] + x[5,4,1] = 0
 Leave_4_2: x[0,4,2] + x[1,4,2] + x[2,4,2] + x[3,4,2] - x[4,1,2] - x[4,2,2]
   - x[4,3,2] - x[4,5,2] - x[4,6,2] + x[5,4,2] = 0
 Leave_4_3: x[0,4,3] + x[1,4,3] + x[2,4,3] + x[3,4,3] - x[4,1,3] - x[4,2,3]
   - x[4,3,3] - x[4,5,3] - x[4,6,3] + x[5,4,3] = 0
 Leave_5_1: x[0,5,1] + x[1,5,1] + x[2,5,1] + x[3,5,1] + x[4,5,1] - x[5,1,1]
   - x[5,2,1] - x[5,3,1] - x[5,4,1] - x[5,6,1] = 0
 Leave_5_2: x[0,5,2] + x[1,5,2] + x[2,5,2] + x[3,5,2] + x[4,5,2] - x[5,1,2]
   - x[5,2,2] - x[5,3,2] - x[5,4,2] - x[5,6,2] = 0
 Leave_5_3: x[0,5,3] + x[1,5,3] + x[2,5,3] + x[3,5,3] + x[4,5,3] - x[5,1,3]
   - x[5,2,3] - x[5,3,3] - x[5,4,3] - x[5,6,3] = 0
 R26: 6 x[0,1,1] + 7 x[0,2,1] + 5 x[0,3,1] + 6 x[0,4,1] + 8 x[0,5,1]
   + 7 x[1,2,1] + 5 x[1,3,1] + 6 x[1,4,1] + 8 x[1,5,1] + 6 x[2,1,1]
   + 5 x[2,3,1] + 6 x[2,4,1] + 8 x[2,5,1] + 6 x[3,1,1] + 7 x[3,2,1]
   + 6 x[3,4,1] + 8 x[3,5,1] + 6 x[4,1,1] + 7 x[4,2,1] + 5 x[4,3,1]
   + 8 x[4,5,1] + 6 x[5,1,1] + 7 x[5,2,1] + 5 x[5,3,1] + 6 x[5,4,1] <= 16
 R27: 6 x[0,1,2] + 7 x[0,2,2] + 5 x[0,3,2] + 6 x[0,4,2] + 8 x[0,5,2]
   + 7 x[1,2,2] + 5 x[1,3,2] + 6 x[1,4,2] + 8 x[1,5,2] + 6 x[2,1,2]
   + 5 x[2,3,2] + 6 x[2,4,2] + 8 x[2,5,2] + 6 x[3,1,2] + 7 x[3,2,2]
   + 6 x[3,4,2] + 8 x[3,5,2] + 6 x[4,1,2] + 7 x[4,2,2] + 5 x[4,3,2]
   + 8 x[4,5,2] + 6 x[5,1,2] + 7 x[5,2,2] + 5 x[5,3,2] + 6 x[5,4,2] <= 16
 R28: 6 x[0,1,3] + 7 x[0,2,3] + 5 x[0,3,3] + 6 x[0,4,3] + 8 x[0,5,3]
   + 7 x[1,2,3] + 5 x[1,3,3] + 6 x[1,4,3] + 8 x[1,5,3] + 6 x[2,1,3]
   + 5 x[2,3,3] + 6 x[2,4,3] + 8 x[2,5,3] + 6 x[3,1,3] + 7 x[3,2,3]
   + 6 x[3,4,3] + 8 x[3,5,3] + 6 x[4,1,3] + 7 x[4,2,3] + 5 x[4,3,3]
   + 8 x[4,5,3] + 6 x[5,1,3] + 7 x[5,2,3] + 5 x[5,3,3] + 6 x[5,4,3] <= 16
Bounds
Binaries
 x[0,1,1] x[0,1,2] x[0,1,3] x[0,2,1] x[0,2,2] x[0,2,3] x[0,3,1] x[0,3,2]
 x[0,3,3] x[0,4,1] x[0,4,2] x[0,4,3] x[0,5,1] x[0,5,2] x[0,5,3] x[0,6,1]
 x[0,6,2] x[0,6,3] x[1,2,1] x[1,2,2] x[1,2,3] x[1,3,1] x[1,3,2] x[1,3,3]
 x[1,4,1] x[1,4,2] x[1,4,3] x[1,5,1] x[1,5,2] x[1,5,3] x[1,6,1] x[1,6,2]
 x[1,6,3] x[2,1,1] x[2,1,2] x[2,1,3] x[2,3,1] x[2,3,2] x[2,3,3] x[2,4,1]
 x[2,4,2] x[2,4,3] x[2,5,1] x[2,5,2] x[2,5,3] x[2,6,1] x[2,6,2] x[2,6,3]
 x[3,1,1] x[3,1,2] x[3,1,3] x[3,2,1] x[3,2,2] x[3,2,3] x[3,4,1] x[3,4,2]
 x[3,4,3] x[3,5,1] x[3,5,2] x[3,5,3] x[3,6,1] x[3,6,2] x[3,6,3] x[4,1,1]
 x[4,1,2] x[4,1,3] x[4,2,1] x[4,2,2] x[4,2,3] x[4,3,1] x[4,3,2] x[4,3,3]
 x[4,5,1] x[4,5,2] x[4,5,3] x[4,6,1] x[4,6,2] x[4,6,3] x[5,1,1] x[5,1,2]
 x[5,1,3] x[5,2,1] x[5,2,2] x[5,2,3] x[5,3,1] x[5,3,2] x[5,3,3] x[5,4,1]
 x[5,4,2] x[5,4,3] x[5,6,1] x[5,6,2] x[5,6,3]
End
